
  22    4
  10   10   10   10

   0   0   0   0   0   6 2 3 4 5 6 7 
   8  10  10  10  10   9 21 20 19 18 14 13 12 10 9 
   3  10  10  10  10   8 21 19 18 14 13 10 9 8 
   8  10  10  10  10   5 20 18 13 11 8 
   1  10  10  10  10   2 17 10 
   6  10  10  10  10   2 15 9 
   4  10  10  10  10   3 20 18 17 
   8  10  10  10  10   2 16 12 
   6  10  10  10  10   2 17 16 
  10  10  10  10  10   2 16 15 
   1  10  10  10  10   2 19 17 
   7  10  10  10  10   1 15 
   3  10  10  10  10   1 16 
   2  10  10  10  10   1 15 
   1  10  10  10  10   1 22
   3  10  10  10  10   1 22
   1  10  10  10  10   1 22
   7  10  10  10  10   1 22
   1  10  10  10  10   1 22
   3  10  10  10  10   1 22
   3  10  10  10  10   1 22
   0   0   0   0   0   0 
